SAT problem/sat_in/bonus/17.wcnf
p wcnf 5 14 36
36 1 2 0
36 1 3 0
36 1 5 0
36 2 3 0
36 2 4 0
36 2 5 0
36 3 4 0
36 3 5 0
36 4 5 0
6 -1 0
5 -2 0
5 -3 0
6 -4 0
5 -5 0
