SAT problem/sat_in/task1/17.cnf
p cnf 27 69
4 8 13 0
7 12 18 0
11 17 24 0
16 23 31 0
22 30 39 0
29 38 48 0
37 47 58 0
46 57 69 0
56 68 81 0
-4 -8 0
-4 -13 0
-7 -12 0
-7 -18 0
-11 -17 0
-11 -24 0
-16 -23 0
-16 -31 0
-22 -30 0
-22 -39 0
-29 -38 0
-29 -48 0
-37 -47 0
-37 -58 0
-46 -57 0
-46 -69 0
-56 -68 0
-56 -81 0
-4 -11 0
-8 -17 0
-13 -24 0
-4 -16 0
-8 -23 0
-13 -31 0
-4 -29 0
-8 -38 0
-13 -48 0
-4 -46 0
-8 -57 0
-13 -69 0
-4 -56 0
-8 -68 0
-13 -81 0
-11 -22 0
-17 -30 0
-24 -39 0
-11 -46 0
-17 -57 0
-24 -69 0
-16 -29 0
-23 -38 0
-31 -48 0
-16 -37 0
-23 -47 0
-31 -58 0
-16 -46 0
-23 -57 0
-31 -69 0
-16 -56 0
-23 -68 0
-31 -81 0
-22 -46 0
-30 -57 0
-39 -69 0
-37 -56 0
-47 -68 0
-58 -81 0
-46 -56 0
-57 -68 0
-69 -81 0
